50
    1    44    35
    2     6    26
    3    16    48
    4    42    21
    5    49    22
    6    37    45
    7     7    43
    8    15    45
    9    46     5
   10    22     2
   11    41     9
   12     9     1
   13    17    22
   14    48    44
   15     7    38
   16    44    24
   17    34    15
   18    16    32
   19    44    17
   20    43    34
   21    33    49
   22    31    33
   23    28    32
   24    50    22
   25    17    24
   26    24    38
   27    20     6
   28    19    45
   29    44    45
   30    46    29
   31    47    49
   32    16    27
   33     8    47
   34    39    19
   35     7    42
   36    19     7
   37    37    22
   38    31    20
   39    26    48
   40    37    50
   41    22    45
   42    13    17
   43    31    22
   44    43    45
   45     8    13
   46     3    48
   47    14    37
   48    36    23
   49    24    29
   50    39    24
247
